c A temporal KB for measuring ID
p wcnf 200 2884 51
51 158 189 181 201 0
51 -158 160 0
51 -158 -159 0
51 -201 160 0
51 -201 159 0
51 -189 191 0
51 -189 -192 0
51 -201 191 0
51 -201 192 0
51 -181 183 0
51 -181 -184 0
51 -201 183 0
51 -201 184 0
51 158 190 194 202 0
51 -158 160 0
51 -158 -159 0
51 -202 160 0
51 -202 159 0
51 -190 192 0
51 -190 -191 0
51 -202 192 0
51 -202 191 0
51 -194 196 0
51 -194 -195 0
51 -202 196 0
51 -202 195 0
51 78 90 153 203 0
51 -78 80 0
51 -78 -79 0
51 -203 80 0
51 -203 79 0
51 -90 92 0
51 -90 -91 0
51 -203 92 0
51 -203 91 0
51 -153 155 0
51 -153 -156 0
51 -203 155 0
51 -203 156 0
51 34 17 177 204 0
51 -34 36 0
51 -34 -35 0
51 -204 36 0
51 -204 35 0
51 -17 19 0
51 -17 -20 0
51 -204 19 0
51 -204 20 0
51 -177 179 0
51 -177 -180 0
51 -204 179 0
51 -204 180 0
51 10 66 134 205 0
51 -10 12 0
51 -10 -11 0
51 -205 12 0
51 -205 11 0
51 -66 68 0
51 -66 -67 0
51 -205 68 0
51 -205 67 0
51 -134 136 0
51 -134 -135 0
51 -205 136 0
51 -205 135 0
51 138 170 89 206 0
51 -138 140 0
51 -138 -139 0
51 -206 140 0
51 -206 139 0
51 -170 172 0
51 -170 -171 0
51 -206 172 0
51 -206 171 0
51 -89 91 0
51 -89 -92 0
51 -206 91 0
51 -206 92 0
51 66 186 89 207 0
51 -66 68 0
51 -66 -67 0
51 -207 68 0
51 -207 67 0
51 -186 188 0
51 -186 -187 0
51 -207 188 0
51 -207 187 0
51 -89 91 0
51 -89 -92 0
51 -207 91 0
51 -207 92 0
51 73 57 133 208 0
51 -73 75 0
51 -73 -76 0
51 -208 75 0
51 -208 76 0
51 -57 59 0
51 -57 -60 0
51 -208 59 0
51 -208 60 0
51 -133 135 0
51 -133 -136 0
51 -208 135 0
51 -208 136 0
51 65 33 70 209 0
51 -65 67 0
51 -65 -68 0
51 -209 67 0
51 -209 68 0
51 -33 35 0
51 -33 -36 0
51 -209 35 0
51 -209 36 0
51 -70 72 0
51 -70 -71 0
51 -209 72 0
51 -209 71 0
51 85 41 18 210 0
51 -85 87 0
51 -85 -88 0
51 -210 87 0
51 -210 88 0
51 -41 43 0
51 -41 -44 0
51 -210 43 0
51 -210 44 0
51 -18 20 0
51 -18 -19 0
51 -210 20 0
51 -210 19 0
51 129 153 170 211 0
51 -129 131 0
51 -129 -132 0
51 -211 131 0
51 -211 132 0
51 -153 155 0
51 -153 -156 0
51 -211 155 0
51 -211 156 0
51 -170 172 0
51 -170 -171 0
51 -211 172 0
51 -211 171 0
51 117 130 154 212 0
51 -117 119 0
51 -117 -120 0
51 -212 119 0
51 -212 120 0
51 -130 132 0
51 -130 -131 0
51 -212 132 0
51 -212 131 0
51 -154 156 0
51 -154 -155 0
51 -212 156 0
51 -212 155 0
51 50 197 182 213 0
51 -50 52 0
51 -50 -51 0
51 -213 52 0
51 -213 51 0
51 -197 199 0
51 -197 -200 0
51 -213 199 0
51 -213 200 0
51 -182 184 0
51 -182 -183 0
51 -213 184 0
51 -213 183 0
51 38 90 17 214 0
51 -38 40 0
51 -38 -39 0
51 -214 40 0
51 -214 39 0
51 -90 92 0
51 -90 -91 0
51 -214 92 0
51 -214 91 0
51 -17 19 0
51 -17 -20 0
51 -214 19 0
51 -214 20 0
51 57 17 94 215 0
51 -57 59 0
51 -57 -60 0
51 -215 59 0
51 -215 60 0
51 -17 19 0
51 -17 -20 0
51 -215 19 0
51 -215 20 0
51 -94 96 0
51 -94 -95 0
51 -215 96 0
51 -215 95 0
51 73 170 66 216 0
51 -73 75 0
51 -73 -76 0
51 -216 75 0
51 -216 76 0
51 -170 172 0
51 -170 -171 0
51 -216 172 0
51 -216 171 0
51 -66 68 0
51 -66 -67 0
51 -216 68 0
51 -216 67 0
51 14 110 58 217 0
51 -14 16 0
51 -14 -15 0
51 -217 16 0
51 -217 15 0
51 -110 112 0
51 -110 -111 0
51 -217 112 0
51 -217 111 0
51 -58 60 0
51 -58 -59 0
51 -217 60 0
51 -217 59 0
51 89 170 181 218 0
51 -89 91 0
51 -89 -92 0
51 -218 91 0
51 -218 92 0
51 -170 172 0
51 -170 -171 0
51 -218 172 0
51 -218 171 0
51 -181 183 0
51 -181 -184 0
51 -218 183 0
51 -218 184 0
51 53 189 89 219 0
51 -53 55 0
51 -53 -56 0
51 -219 55 0
51 -219 56 0
51 -189 191 0
51 -189 -192 0
51 -219 191 0
51 -219 192 0
51 -89 91 0
51 -89 -92 0
51 -219 91 0
51 -219 92 0
51 121 153 41 220 0
51 -121 123 0
51 -121 -124 0
51 -220 123 0
51 -220 124 0
51 -153 155 0
51 -153 -156 0
51 -220 155 0
51 -220 156 0
51 -41 43 0
51 -41 -44 0
51 -220 43 0
51 -220 44 0
51 130 106 53 221 0
51 -130 132 0
51 -130 -131 0
51 -221 132 0
51 -221 131 0
51 -106 108 0
51 -106 -107 0
51 -221 108 0
51 -221 107 0
51 -53 55 0
51 -53 -56 0
51 -221 55 0
51 -221 56 0
51 126 166 157 222 0
51 -126 128 0
51 -126 -127 0
51 -222 128 0
51 -222 127 0
51 -166 168 0
51 -166 -167 0
51 -222 168 0
51 -222 167 0
51 -157 159 0
51 -157 -160 0
51 -222 159 0
51 -222 160 0
51 170 21 45 223 0
51 -170 172 0
51 -170 -171 0
51 -223 172 0
51 -223 171 0
51 -21 23 0
51 -21 -24 0
51 -223 23 0
51 -223 24 0
51 -45 47 0
51 -45 -48 0
51 -223 47 0
51 -223 48 0
51 153 149 193 224 0
51 -153 155 0
51 -153 -156 0
51 -224 155 0
51 -224 156 0
51 -149 151 0
51 -149 -152 0
51 -224 151 0
51 -224 152 0
51 -193 195 0
51 -193 -196 0
51 -224 195 0
51 -224 196 0
51 70 150 41 225 0
51 -70 72 0
51 -70 -71 0
51 -225 72 0
51 -225 71 0
51 -150 152 0
51 -150 -151 0
51 -225 152 0
51 -225 151 0
51 -41 43 0
51 -41 -44 0
51 -225 43 0
51 -225 44 0
51 197 93 178 226 0
51 -197 199 0
51 -197 -200 0
51 -226 199 0
51 -226 200 0
51 -93 95 0
51 -93 -96 0
51 -226 95 0
51 -226 96 0
51 -178 180 0
51 -178 -179 0
51 -226 180 0
51 -226 179 0
51 93 14 89 227 0
51 -93 95 0
51 -93 -96 0
51 -227 95 0
51 -227 96 0
51 -14 16 0
51 -14 -15 0
51 -227 16 0
51 -227 15 0
51 -89 91 0
51 -89 -92 0
51 -227 91 0
51 -227 92 0
51 130 166 46 228 0
51 -130 132 0
51 -130 -131 0
51 -228 132 0
51 -228 131 0
51 -166 168 0
51 -166 -167 0
51 -228 168 0
51 -228 167 0
51 -46 48 0
51 -46 -47 0
51 -228 48 0
51 -228 47 0
51 178 70 94 229 0
51 -178 180 0
51 -178 -179 0
51 -229 180 0
51 -229 179 0
51 -70 72 0
51 -70 -71 0
51 -229 72 0
51 -229 71 0
51 -94 96 0
51 -94 -95 0
51 -229 96 0
51 -229 95 0
51 58 181 65 230 0
51 -58 60 0
51 -58 -59 0
51 -230 60 0
51 -230 59 0
51 -181 183 0
51 -181 -184 0
51 -230 183 0
51 -230 184 0
51 -65 67 0
51 -65 -68 0
51 -230 67 0
51 -230 68 0
51 174 90 121 231 0
51 -174 176 0
51 -174 -175 0
51 -231 176 0
51 -231 175 0
51 -90 92 0
51 -90 -91 0
51 -231 92 0
51 -231 91 0
51 -121 123 0
51 -121 -124 0
51 -231 123 0
51 -231 124 0
51 74 37 25 232 0
51 -74 76 0
51 -74 -75 0
51 -232 76 0
51 -232 75 0
51 -37 39 0
51 -37 -40 0
51 -232 39 0
51 -232 40 0
51 -25 27 0
51 -25 -28 0
51 -232 27 0
51 -232 28 0
51 190 14 38 233 0
51 -190 192 0
51 -190 -191 0
51 -233 192 0
51 -233 191 0
51 -14 16 0
51 -14 -15 0
51 -233 16 0
51 -233 15 0
51 -38 40 0
51 -38 -39 0
51 -233 40 0
51 -233 39 0
51 170 177 70 234 0
51 -170 172 0
51 -170 -171 0
51 -234 172 0
51 -234 171 0
51 -177 179 0
51 -177 -180 0
51 -234 179 0
51 -234 180 0
51 -70 72 0
51 -70 -71 0
51 -234 72 0
51 -234 71 0
51 193 70 53 235 0
51 -193 195 0
51 -193 -196 0
51 -235 195 0
51 -235 196 0
51 -70 72 0
51 -70 -71 0
51 -235 72 0
51 -235 71 0
51 -53 55 0
51 -53 -56 0
51 -235 55 0
51 -235 56 0
51 69 58 9 236 0
51 -69 71 0
51 -69 -72 0
51 -236 71 0
51 -236 72 0
51 -58 60 0
51 -58 -59 0
51 -236 60 0
51 -236 59 0
51 -9 11 0
51 -9 -12 0
51 -236 11 0
51 -236 12 0
51 93 34 45 237 0
51 -93 95 0
51 -93 -96 0
51 -237 95 0
51 -237 96 0
51 -34 36 0
51 -34 -35 0
51 -237 36 0
51 -237 35 0
51 -45 47 0
51 -45 -48 0
51 -237 47 0
51 -237 48 0
51 49 138 62 238 0
51 -49 51 0
51 -49 -52 0
51 -238 51 0
51 -238 52 0
51 -138 140 0
51 -138 -139 0
51 -238 140 0
51 -238 139 0
51 -62 64 0
51 -62 -63 0
51 -238 64 0
51 -238 63 0
51 66 97 145 239 0
51 -66 68 0
51 -66 -67 0
51 -239 68 0
51 -239 67 0
51 -97 99 0
51 -97 -100 0
51 -239 99 0
51 -239 100 0
51 -145 147 0
51 -145 -148 0
51 -239 147 0
51 -239 148 0
51 126 30 105 240 0
51 -126 128 0
51 -126 -127 0
51 -240 128 0
51 -240 127 0
51 -30 32 0
51 -30 -31 0
51 -240 32 0
51 -240 31 0
51 -105 107 0
51 -105 -108 0
51 -240 107 0
51 -240 108 0
51 65 193 134 241 0
51 -65 67 0
51 -65 -68 0
51 -241 67 0
51 -241 68 0
51 -193 195 0
51 -193 -196 0
51 -241 195 0
51 -241 196 0
51 -134 136 0
51 -134 -135 0
51 -241 136 0
51 -241 135 0
51 98 106 169 242 0
51 -98 100 0
51 -98 -99 0
51 -242 100 0
51 -242 99 0
51 -106 108 0
51 -106 -107 0
51 -242 108 0
51 -242 107 0
51 -169 171 0
51 -169 -172 0
51 -242 171 0
51 -242 172 0
51 18 30 77 243 0
51 -18 20 0
51 -18 -19 0
51 -243 20 0
51 -243 19 0
51 -30 32 0
51 -30 -31 0
51 -243 32 0
51 -243 31 0
51 -77 79 0
51 -77 -80 0
51 -243 79 0
51 -243 80 0
51 170 61 197 244 0
51 -170 172 0
51 -170 -171 0
51 -244 172 0
51 -244 171 0
51 -61 63 0
51 -61 -64 0
51 -244 63 0
51 -244 64 0
51 -197 199 0
51 -197 -200 0
51 -244 199 0
51 -244 200 0
51 33 129 141 245 0
51 -33 35 0
51 -33 -36 0
51 -245 35 0
51 -245 36 0
51 -129 131 0
51 -129 -132 0
51 -245 131 0
51 -245 132 0
51 -141 143 0
51 -141 -144 0
51 -245 143 0
51 -245 144 0
51 78 49 149 246 0
51 -78 80 0
51 -78 -79 0
51 -246 80 0
51 -246 79 0
51 -49 51 0
51 -49 -52 0
51 -246 51 0
51 -246 52 0
51 -149 151 0
51 -149 -152 0
51 -246 151 0
51 -246 152 0
51 54 170 50 247 0
51 -54 56 0
51 -54 -55 0
51 -247 56 0
51 -247 55 0
51 -170 172 0
51 -170 -171 0
51 -247 172 0
51 -247 171 0
51 -50 52 0
51 -50 -51 0
51 -247 52 0
51 -247 51 0
51 13 153 174 248 0
51 -13 15 0
51 -13 -16 0
51 -248 15 0
51 -248 16 0
51 -153 155 0
51 -153 -156 0
51 -248 155 0
51 -248 156 0
51 -174 176 0
51 -174 -175 0
51 -248 176 0
51 -248 175 0
51 142 30 197 249 0
51 -142 144 0
51 -142 -143 0
51 -249 144 0
51 -249 143 0
51 -30 32 0
51 -30 -31 0
51 -249 32 0
51 -249 31 0
51 -197 199 0
51 -197 -200 0
51 -249 199 0
51 -249 200 0
51 174 170 21 250 0
51 -174 176 0
51 -174 -175 0
51 -250 176 0
51 -250 175 0
51 -170 172 0
51 -170 -171 0
51 -250 172 0
51 -250 171 0
51 -21 23 0
51 -21 -24 0
51 -250 23 0
51 -250 24 0
51 125 65 130 251 0
51 -125 127 0
51 -125 -128 0
51 -251 127 0
51 -251 128 0
51 -65 67 0
51 -65 -68 0
51 -251 67 0
51 -251 68 0
51 -130 132 0
51 -130 -131 0
51 -251 132 0
51 -251 131 0
51 157 73 166 252 0
51 -157 159 0
51 -157 -160 0
51 -252 159 0
51 -252 160 0
51 -73 75 0
51 -73 -76 0
51 -252 75 0
51 -252 76 0
51 -166 168 0
51 -166 -167 0
51 -252 168 0
51 -252 167 0
51 150 90 58 253 0
51 -150 152 0
51 -150 -151 0
51 -253 152 0
51 -253 151 0
51 -90 92 0
51 -90 -91 0
51 -253 92 0
51 -253 91 0
51 -58 60 0
51 -58 -59 0
51 -253 60 0
51 -253 59 0
51 57 129 145 254 0
51 -57 59 0
51 -57 -60 0
51 -254 59 0
51 -254 60 0
51 -129 131 0
51 -129 -132 0
51 -254 131 0
51 -254 132 0
51 -145 147 0
51 -145 -148 0
51 -254 147 0
51 -254 148 0
51 150 42 57 255 0
51 -150 152 0
51 -150 -151 0
51 -255 152 0
51 -255 151 0
51 -42 44 0
51 -42 -43 0
51 -255 44 0
51 -255 43 0
51 -57 59 0
51 -57 -60 0
51 -255 59 0
51 -255 60 0
51 54 82 106 256 0
51 -54 56 0
51 -54 -55 0
51 -256 56 0
51 -256 55 0
51 -82 84 0
51 -82 -83 0
51 -256 84 0
51 -256 83 0
51 -106 108 0
51 -106 -107 0
51 -256 108 0
51 -256 107 0
51 182 114 1 257 0
51 -182 184 0
51 -182 -183 0
51 -257 184 0
51 -257 183 0
51 -114 116 0
51 -114 -115 0
51 -257 116 0
51 -257 115 0
51 -1 3 0
51 -1 -4 0
51 -257 3 0
51 -257 4 0
51 50 70 170 258 0
51 -50 52 0
51 -50 -51 0
51 -258 52 0
51 -258 51 0
51 -70 72 0
51 -70 -71 0
51 -258 72 0
51 -258 71 0
51 -170 172 0
51 -170 -171 0
51 -258 172 0
51 -258 171 0
51 22 54 82 259 0
51 -22 24 0
51 -22 -23 0
51 -259 24 0
51 -259 23 0
51 -54 56 0
51 -54 -55 0
51 -259 56 0
51 -259 55 0
51 -82 84 0
51 -82 -83 0
51 -259 84 0
51 -259 83 0
51 57 190 114 260 0
51 -57 59 0
51 -57 -60 0
51 -260 59 0
51 -260 60 0
51 -190 192 0
51 -190 -191 0
51 -260 192 0
51 -260 191 0
51 -114 116 0
51 -114 -115 0
51 -260 116 0
51 -260 115 0
51 85 26 62 261 0
51 -85 87 0
51 -85 -88 0
51 -261 87 0
51 -261 88 0
51 -26 28 0
51 -26 -27 0
51 -261 28 0
51 -261 27 0
51 -62 64 0
51 -62 -63 0
51 -261 64 0
51 -261 63 0
51 53 97 193 262 0
51 -53 55 0
51 -53 -56 0
51 -262 55 0
51 -262 56 0
51 -97 99 0
51 -97 -100 0
51 -262 99 0
51 -262 100 0
51 -193 195 0
51 -193 -196 0
51 -262 195 0
51 -262 196 0
51 54 89 38 263 0
51 -54 56 0
51 -54 -55 0
51 -263 56 0
51 -263 55 0
51 -89 91 0
51 -89 -92 0
51 -263 91 0
51 -263 92 0
51 -38 40 0
51 -38 -39 0
51 -263 40 0
51 -263 39 0
51 186 137 73 264 0
51 -186 188 0
51 -186 -187 0
51 -264 188 0
51 -264 187 0
51 -137 139 0
51 -137 -140 0
51 -264 139 0
51 -264 140 0
51 -73 75 0
51 -73 -76 0
51 -264 75 0
51 -264 76 0
51 10 102 18 265 0
51 -10 12 0
51 -10 -11 0
51 -265 12 0
51 -265 11 0
51 -102 104 0
51 -102 -103 0
51 -265 104 0
51 -265 103 0
51 -18 20 0
51 -18 -19 0
51 -265 20 0
51 -265 19 0
51 82 17 190 266 0
51 -82 84 0
51 -82 -83 0
51 -266 84 0
51 -266 83 0
51 -17 19 0
51 -17 -20 0
51 -266 19 0
51 -266 20 0
51 -190 192 0
51 -190 -191 0
51 -266 192 0
51 -266 191 0
51 134 146 69 267 0
51 -134 136 0
51 -134 -135 0
51 -267 136 0
51 -267 135 0
51 -146 148 0
51 -146 -147 0
51 -267 148 0
51 -267 147 0
51 -69 71 0
51 -69 -72 0
51 -267 71 0
51 -267 72 0
51 197 2 181 268 0
51 -197 199 0
51 -197 -200 0
51 -268 199 0
51 -268 200 0
51 -2 4 0
51 -2 -3 0
51 -268 4 0
51 -268 3 0
51 -181 183 0
51 -181 -184 0
51 -268 183 0
51 -268 184 0
51 34 146 1 269 0
51 -34 36 0
51 -34 -35 0
51 -269 36 0
51 -269 35 0
51 -146 148 0
51 -146 -147 0
51 -269 148 0
51 -269 147 0
51 -1 3 0
51 -1 -4 0
51 -269 3 0
51 -269 4 0
51 134 113 149 270 0
51 -134 136 0
51 -134 -135 0
51 -270 136 0
51 -270 135 0
51 -113 115 0
51 -113 -116 0
51 -270 115 0
51 -270 116 0
51 -149 151 0
51 -149 -152 0
51 -270 151 0
51 -270 152 0
51 117 102 105 271 0
51 -117 119 0
51 -117 -120 0
51 -271 119 0
51 -271 120 0
51 -102 104 0
51 -102 -103 0
51 -271 104 0
51 -271 103 0
51 -105 107 0
51 -105 -108 0
51 -271 107 0
51 -271 108 0
51 198 141 153 272 0
51 -198 200 0
51 -198 -199 0
51 -272 200 0
51 -272 199 0
51 -141 143 0
51 -141 -144 0
51 -272 143 0
51 -272 144 0
51 -153 155 0
51 -153 -156 0
51 -272 155 0
51 -272 156 0
51 126 89 25 273 0
51 -126 128 0
51 -126 -127 0
51 -273 128 0
51 -273 127 0
51 -89 91 0
51 -89 -92 0
51 -273 91 0
51 -273 92 0
51 -25 27 0
51 -25 -28 0
51 -273 27 0
51 -273 28 0
51 198 94 105 274 0
51 -198 200 0
51 -198 -199 0
51 -274 200 0
51 -274 199 0
51 -94 96 0
51 -94 -95 0
51 -274 96 0
51 -274 95 0
51 -105 107 0
51 -105 -108 0
51 -274 107 0
51 -274 108 0
51 13 90 194 275 0
51 -13 15 0
51 -13 -16 0
51 -275 15 0
51 -275 16 0
51 -90 92 0
51 -90 -91 0
51 -275 92 0
51 -275 91 0
51 -194 196 0
51 -194 -195 0
51 -275 196 0
51 -275 195 0
51 173 77 17 276 0
51 -173 175 0
51 -173 -176 0
51 -276 175 0
51 -276 176 0
51 -77 79 0
51 -77 -80 0
51 -276 79 0
51 -276 80 0
51 -17 19 0
51 -17 -20 0
51 -276 19 0
51 -276 20 0
51 34 14 49 277 0
51 -34 36 0
51 -34 -35 0
51 -277 36 0
51 -277 35 0
51 -14 16 0
51 -14 -15 0
51 -277 16 0
51 -277 15 0
51 -49 51 0
51 -49 -52 0
51 -277 51 0
51 -277 52 0
51 85 193 117 278 0
51 -85 87 0
51 -85 -88 0
51 -278 87 0
51 -278 88 0
51 -193 195 0
51 -193 -196 0
51 -278 195 0
51 -278 196 0
51 -117 119 0
51 -117 -120 0
51 -278 119 0
51 -278 120 0
51 50 46 105 279 0
51 -50 52 0
51 -50 -51 0
51 -279 52 0
51 -279 51 0
51 -46 48 0
51 -46 -47 0
51 -279 48 0
51 -279 47 0
51 -105 107 0
51 -105 -108 0
51 -279 107 0
51 -279 108 0
51 198 161 142 280 0
51 -198 200 0
51 -198 -199 0
51 -280 200 0
51 -280 199 0
51 -161 163 0
51 -161 -164 0
51 -280 163 0
51 -280 164 0
51 -142 144 0
51 -142 -143 0
51 -280 144 0
51 -280 143 0
51 102 185 193 281 0
51 -102 104 0
51 -102 -103 0
51 -281 104 0
51 -281 103 0
51 -185 187 0
51 -185 -188 0
51 -281 187 0
51 -281 188 0
51 -193 195 0
51 -193 -196 0
51 -281 195 0
51 -281 196 0
51 13 57 78 282 0
51 -13 15 0
51 -13 -16 0
51 -282 15 0
51 -282 16 0
51 -57 59 0
51 -57 -60 0
51 -282 59 0
51 -282 60 0
51 -78 80 0
51 -78 -79 0
51 -282 80 0
51 -282 79 0
51 157 106 173 283 0
51 -157 159 0
51 -157 -160 0
51 -283 159 0
51 -283 160 0
51 -106 108 0
51 -106 -107 0
51 -283 108 0
51 -283 107 0
51 -173 175 0
51 -173 -176 0
51 -283 175 0
51 -283 176 0
51 86 6 69 284 0
51 -86 88 0
51 -86 -87 0
51 -284 88 0
51 -284 87 0
51 -6 8 0
51 -6 -7 0
51 -284 8 0
51 -284 7 0
51 -69 71 0
51 -69 -72 0
51 -284 71 0
51 -284 72 0
51 42 158 178 285 0
51 -42 44 0
51 -42 -43 0
51 -285 44 0
51 -285 43 0
51 -158 160 0
51 -158 -159 0
51 -285 160 0
51 -285 159 0
51 -178 180 0
51 -178 -179 0
51 -285 180 0
51 -285 179 0
51 97 54 181 286 0
51 -97 99 0
51 -97 -100 0
51 -286 99 0
51 -286 100 0
51 -54 56 0
51 -54 -55 0
51 -286 56 0
51 -286 55 0
51 -181 183 0
51 -181 -184 0
51 -286 183 0
51 -286 184 0
51 153 185 61 287 0
51 -153 155 0
51 -153 -156 0
51 -287 155 0
51 -287 156 0
51 -185 187 0
51 -185 -188 0
51 -287 187 0
51 -287 188 0
51 -61 63 0
51 -61 -64 0
51 -287 63 0
51 -287 64 0
51 10 5 186 288 0
51 -10 12 0
51 -10 -11 0
51 -288 12 0
51 -288 11 0
51 -5 7 0
51 -5 -8 0
51 -288 7 0
51 -288 8 0
51 -186 188 0
51 -186 -187 0
51 -288 188 0
51 -288 187 0
51 9 166 146 289 0
51 -9 11 0
51 -9 -12 0
51 -289 11 0
51 -289 12 0
51 -166 168 0
51 -166 -167 0
51 -289 168 0
51 -289 167 0
51 -146 148 0
51 -146 -147 0
51 -289 148 0
51 -289 147 0
51 93 198 65 290 0
51 -93 95 0
51 -93 -96 0
51 -290 95 0
51 -290 96 0
51 -198 200 0
51 -198 -199 0
51 -290 200 0
51 -290 199 0
51 -65 67 0
51 -65 -68 0
51 -290 67 0
51 -290 68 0
51 65 78 69 291 0
51 -65 67 0
51 -65 -68 0
51 -291 67 0
51 -291 68 0
51 -78 80 0
51 -78 -79 0
51 -291 80 0
51 -291 79 0
51 -69 71 0
51 -69 -72 0
51 -291 71 0
51 -291 72 0
51 54 118 25 292 0
51 -54 56 0
51 -54 -55 0
51 -292 56 0
51 -292 55 0
51 -118 120 0
51 -118 -119 0
51 -292 120 0
51 -292 119 0
51 -25 27 0
51 -25 -28 0
51 -292 27 0
51 -292 28 0
51 198 162 82 293 0
51 -198 200 0
51 -198 -199 0
51 -293 200 0
51 -293 199 0
51 -162 164 0
51 -162 -163 0
51 -293 164 0
51 -293 163 0
51 -82 84 0
51 -82 -83 0
51 -293 84 0
51 -293 83 0
51 125 157 70 294 0
51 -125 127 0
51 -125 -128 0
51 -294 127 0
51 -294 128 0
51 -157 159 0
51 -157 -160 0
51 -294 159 0
51 -294 160 0
51 -70 72 0
51 -70 -71 0
51 -294 72 0
51 -294 71 0
51 129 81 45 295 0
51 -129 131 0
51 -129 -132 0
51 -295 131 0
51 -295 132 0
51 -81 83 0
51 -81 -84 0
51 -295 83 0
51 -295 84 0
51 -45 47 0
51 -45 -48 0
51 -295 47 0
51 -295 48 0
51 70 138 118 296 0
51 -70 72 0
51 -70 -71 0
51 -296 72 0
51 -296 71 0
51 -138 140 0
51 -138 -139 0
51 -296 140 0
51 -296 139 0
51 -118 120 0
51 -118 -119 0
51 -296 120 0
51 -296 119 0
51 22 5 89 297 0
51 -22 24 0
51 -22 -23 0
51 -297 24 0
51 -297 23 0
51 -5 7 0
51 -5 -8 0
51 -297 7 0
51 -297 8 0
51 -89 91 0
51 -89 -92 0
51 -297 91 0
51 -297 92 0
51 133 162 74 298 0
51 -133 135 0
51 -133 -136 0
51 -298 135 0
51 -298 136 0
51 -162 164 0
51 -162 -163 0
51 -298 164 0
51 -298 163 0
51 -74 76 0
51 -74 -75 0
51 -298 76 0
51 -298 75 0
51 41 54 69 299 0
51 -41 43 0
51 -41 -44 0
51 -299 43 0
51 -299 44 0
51 -54 56 0
51 -54 -55 0
51 -299 56 0
51 -299 55 0
51 -69 71 0
51 -69 -72 0
51 -299 71 0
51 -299 72 0
51 5 17 98 300 0
51 -5 7 0
51 -5 -8 0
51 -300 7 0
51 -300 8 0
51 -17 19 0
51 -17 -20 0
51 -300 19 0
51 -300 20 0
51 -98 100 0
51 -98 -99 0
51 -300 100 0
51 -300 99 0
51 74 18 97 301 0
51 -74 76 0
51 -74 -75 0
51 -301 76 0
51 -301 75 0
51 -18 20 0
51 -18 -19 0
51 -301 20 0
51 -301 19 0
51 -97 99 0
51 -97 -100 0
51 -301 99 0
51 -301 100 0
51 169 142 82 302 0
51 -169 171 0
51 -169 -172 0
51 -302 171 0
51 -302 172 0
51 -142 144 0
51 -142 -143 0
51 -302 144 0
51 -302 143 0
51 -82 84 0
51 -82 -83 0
51 -302 84 0
51 -302 83 0
51 149 54 125 303 0
51 -149 151 0
51 -149 -152 0
51 -303 151 0
51 -303 152 0
51 -54 56 0
51 -54 -55 0
51 -303 56 0
51 -303 55 0
51 -125 127 0
51 -125 -128 0
51 -303 127 0
51 -303 128 0
51 21 177 101 304 0
51 -21 23 0
51 -21 -24 0
51 -304 23 0
51 -304 24 0
51 -177 179 0
51 -177 -180 0
51 -304 179 0
51 -304 180 0
51 -101 103 0
51 -101 -104 0
51 -304 103 0
51 -304 104 0
51 137 61 58 305 0
51 -137 139 0
51 -137 -140 0
51 -305 139 0
51 -305 140 0
51 -61 63 0
51 -61 -64 0
51 -305 63 0
51 -305 64 0
51 -58 60 0
51 -58 -59 0
51 -305 60 0
51 -305 59 0
51 197 142 157 306 0
51 -197 199 0
51 -197 -200 0
51 -306 199 0
51 -306 200 0
51 -142 144 0
51 -142 -143 0
51 -306 144 0
51 -306 143 0
51 -157 159 0
51 -157 -160 0
51 -306 159 0
51 -306 160 0
51 173 106 22 307 0
51 -173 175 0
51 -173 -176 0
51 -307 175 0
51 -307 176 0
51 -106 108 0
51 -106 -107 0
51 -307 108 0
51 -307 107 0
51 -22 24 0
51 -22 -23 0
51 -307 24 0
51 -307 23 0
51 14 114 194 308 0
51 -14 16 0
51 -14 -15 0
51 -308 16 0
51 -308 15 0
51 -114 116 0
51 -114 -115 0
51 -308 116 0
51 -308 115 0
51 -194 196 0
51 -194 -195 0
51 -308 196 0
51 -308 195 0
51 189 157 110 309 0
51 -189 191 0
51 -189 -192 0
51 -309 191 0
51 -309 192 0
51 -157 159 0
51 -157 -160 0
51 -309 159 0
51 -309 160 0
51 -110 112 0
51 -110 -111 0
51 -309 112 0
51 -309 111 0
51 130 185 25 310 0
51 -130 132 0
51 -130 -131 0
51 -310 132 0
51 -310 131 0
51 -185 187 0
51 -185 -188 0
51 -310 187 0
51 -310 188 0
51 -25 27 0
51 -25 -28 0
51 -310 27 0
51 -310 28 0
51 129 18 34 311 0
51 -129 131 0
51 -129 -132 0
51 -311 131 0
51 -311 132 0
51 -18 20 0
51 -18 -19 0
51 -311 20 0
51 -311 19 0
51 -34 36 0
51 -34 -35 0
51 -311 36 0
51 -311 35 0
51 166 86 73 312 0
51 -166 168 0
51 -166 -167 0
51 -312 168 0
51 -312 167 0
51 -86 88 0
51 -86 -87 0
51 -312 88 0
51 -312 87 0
51 -73 75 0
51 -73 -76 0
51 -312 75 0
51 -312 76 0
51 129 153 121 313 0
51 -129 131 0
51 -129 -132 0
51 -313 131 0
51 -313 132 0
51 -153 155 0
51 -153 -156 0
51 -313 155 0
51 -313 156 0
51 -121 123 0
51 -121 -124 0
51 -313 123 0
51 -313 124 0
51 86 45 166 314 0
51 -86 88 0
51 -86 -87 0
51 -314 88 0
51 -314 87 0
51 -45 47 0
51 -45 -48 0
51 -314 47 0
51 -314 48 0
51 -166 168 0
51 -166 -167 0
51 -314 168 0
51 -314 167 0
51 110 73 157 315 0
51 -110 112 0
51 -110 -111 0
51 -315 112 0
51 -315 111 0
51 -73 75 0
51 -73 -76 0
51 -315 75 0
51 -315 76 0
51 -157 159 0
51 -157 -160 0
51 -315 159 0
51 -315 160 0
51 30 113 85 316 0
51 -30 32 0
51 -30 -31 0
51 -316 32 0
51 -316 31 0
51 -113 115 0
51 -113 -116 0
51 -316 115 0
51 -316 116 0
51 -85 87 0
51 -85 -88 0
51 -316 87 0
51 -316 88 0
51 81 113 134 317 0
51 -81 83 0
51 -81 -84 0
51 -317 83 0
51 -317 84 0
51 -113 115 0
51 -113 -116 0
51 -317 115 0
51 -317 116 0
51 -134 136 0
51 -134 -135 0
51 -317 136 0
51 -317 135 0
51 2 10 125 318 0
51 -2 4 0
51 -2 -3 0
51 -318 4 0
51 -318 3 0
51 -10 12 0
51 -10 -11 0
51 -318 12 0
51 -318 11 0
51 -125 127 0
51 -125 -128 0
51 -318 127 0
51 -318 128 0
51 178 190 58 319 0
51 -178 180 0
51 -178 -179 0
51 -319 180 0
51 -319 179 0
51 -190 192 0
51 -190 -191 0
51 -319 192 0
51 -319 191 0
51 -58 60 0
51 -58 -59 0
51 -319 60 0
51 -319 59 0
51 73 78 22 320 0
51 -73 75 0
51 -73 -76 0
51 -320 75 0
51 -320 76 0
51 -78 80 0
51 -78 -79 0
51 -320 80 0
51 -320 79 0
51 -22 24 0
51 -22 -23 0
51 -320 24 0
51 -320 23 0
51 82 6 29 321 0
51 -82 84 0
51 -82 -83 0
51 -321 84 0
51 -321 83 0
51 -6 8 0
51 -6 -7 0
51 -321 8 0
51 -321 7 0
51 -29 31 0
51 -29 -32 0
51 -321 31 0
51 -321 32 0
51 30 5 169 322 0
51 -30 32 0
51 -30 -31 0
51 -322 32 0
51 -322 31 0
51 -5 7 0
51 -5 -8 0
51 -322 7 0
51 -322 8 0
51 -169 171 0
51 -169 -172 0
51 -322 171 0
51 -322 172 0
51 137 77 34 323 0
51 -137 139 0
51 -137 -140 0
51 -323 139 0
51 -323 140 0
51 -77 79 0
51 -77 -80 0
51 -323 79 0
51 -323 80 0
51 -34 36 0
51 -34 -35 0
51 -323 36 0
51 -323 35 0
51 78 182 129 324 0
51 -78 80 0
51 -78 -79 0
51 -324 80 0
51 -324 79 0
51 -182 184 0
51 -182 -183 0
51 -324 184 0
51 -324 183 0
51 -129 131 0
51 -129 -132 0
51 -324 131 0
51 -324 132 0
51 90 193 174 325 0
51 -90 92 0
51 -90 -91 0
51 -325 92 0
51 -325 91 0
51 -193 195 0
51 -193 -196 0
51 -325 195 0
51 -325 196 0
51 -174 176 0
51 -174 -175 0
51 -325 176 0
51 -325 175 0
51 29 105 161 326 0
51 -29 31 0
51 -29 -32 0
51 -326 31 0
51 -326 32 0
51 -105 107 0
51 -105 -108 0
51 -326 107 0
51 -326 108 0
51 -161 163 0
51 -161 -164 0
51 -326 163 0
51 -326 164 0
51 117 105 94 327 0
51 -117 119 0
51 -117 -120 0
51 -327 119 0
51 -327 120 0
51 -105 107 0
51 -105 -108 0
51 -327 107 0
51 -327 108 0
51 -94 96 0
51 -94 -95 0
51 -327 96 0
51 -327 95 0
51 118 9 53 328 0
51 -118 120 0
51 -118 -119 0
51 -328 120 0
51 -328 119 0
51 -9 11 0
51 -9 -12 0
51 -328 11 0
51 -328 12 0
51 -53 55 0
51 -53 -56 0
51 -328 55 0
51 -328 56 0
51 89 153 34 329 0
51 -89 91 0
51 -89 -92 0
51 -329 91 0
51 -329 92 0
51 -153 155 0
51 -153 -156 0
51 -329 155 0
51 -329 156 0
51 -34 36 0
51 -34 -35 0
51 -329 36 0
51 -329 35 0
51 117 181 150 330 0
51 -117 119 0
51 -117 -120 0
51 -330 119 0
51 -330 120 0
51 -181 183 0
51 -181 -184 0
51 -330 183 0
51 -330 184 0
51 -150 152 0
51 -150 -151 0
51 -330 152 0
51 -330 151 0
51 45 122 86 331 0
51 -45 47 0
51 -45 -48 0
51 -331 47 0
51 -331 48 0
51 -122 124 0
51 -122 -123 0
51 -331 124 0
51 -331 123 0
51 -86 88 0
51 -86 -87 0
51 -331 88 0
51 -331 87 0
51 94 106 70 332 0
51 -94 96 0
51 -94 -95 0
51 -332 96 0
51 -332 95 0
51 -106 108 0
51 -106 -107 0
51 -332 108 0
51 -332 107 0
51 -70 72 0
51 -70 -71 0
51 -332 72 0
51 -332 71 0
51 157 113 149 333 0
51 -157 159 0
51 -157 -160 0
51 -333 159 0
51 -333 160 0
51 -113 115 0
51 -113 -116 0
51 -333 115 0
51 -333 116 0
51 -149 151 0
51 -149 -152 0
51 -333 151 0
51 -333 152 0
51 66 154 173 334 0
51 -66 68 0
51 -66 -67 0
51 -334 68 0
51 -334 67 0
51 -154 156 0
51 -154 -155 0
51 -334 156 0
51 -334 155 0
51 -173 175 0
51 -173 -176 0
51 -334 175 0
51 -334 176 0
51 57 90 46 335 0
51 -57 59 0
51 -57 -60 0
51 -335 59 0
51 -335 60 0
51 -90 92 0
51 -90 -91 0
51 -335 92 0
51 -335 91 0
51 -46 48 0
51 -46 -47 0
51 -335 48 0
51 -335 47 0
51 189 29 61 336 0
51 -189 191 0
51 -189 -192 0
51 -336 191 0
51 -336 192 0
51 -29 31 0
51 -29 -32 0
51 -336 31 0
51 -336 32 0
51 -61 63 0
51 -61 -64 0
51 -336 63 0
51 -336 64 0
51 38 130 150 337 0
51 -38 40 0
51 -38 -39 0
51 -337 40 0
51 -337 39 0
51 -130 132 0
51 -130 -131 0
51 -337 132 0
51 -337 131 0
51 -150 152 0
51 -150 -151 0
51 -337 152 0
51 -337 151 0
51 46 77 58 338 0
51 -46 48 0
51 -46 -47 0
51 -338 48 0
51 -338 47 0
51 -77 79 0
51 -77 -80 0
51 -338 79 0
51 -338 80 0
51 -58 60 0
51 -58 -59 0
51 -338 60 0
51 -338 59 0
51 18 153 73 339 0
51 -18 20 0
51 -18 -19 0
51 -339 20 0
51 -339 19 0
51 -153 155 0
51 -153 -156 0
51 -339 155 0
51 -339 156 0
51 -73 75 0
51 -73 -76 0
51 -339 75 0
51 -339 76 0
51 58 114 142 340 0
51 -58 60 0
51 -58 -59 0
51 -340 60 0
51 -340 59 0
51 -114 116 0
51 -114 -115 0
51 -340 116 0
51 -340 115 0
51 -142 144 0
51 -142 -143 0
51 -340 144 0
51 -340 143 0
51 42 114 154 341 0
51 -42 44 0
51 -42 -43 0
51 -341 44 0
51 -341 43 0
51 -114 116 0
51 -114 -115 0
51 -341 116 0
51 -341 115 0
51 -154 156 0
51 -154 -155 0
51 -341 156 0
51 -341 155 0
51 150 26 121 342 0
51 -150 152 0
51 -150 -151 0
51 -342 152 0
51 -342 151 0
51 -26 28 0
51 -26 -27 0
51 -342 28 0
51 -342 27 0
51 -121 123 0
51 -121 -124 0
51 -342 123 0
51 -342 124 0
51 46 178 117 343 0
51 -46 48 0
51 -46 -47 0
51 -343 48 0
51 -343 47 0
51 -178 180 0
51 -178 -179 0
51 -343 180 0
51 -343 179 0
51 -117 119 0
51 -117 -120 0
51 -343 119 0
51 -343 120 0
51 21 190 157 344 0
51 -21 23 0
51 -21 -24 0
51 -344 23 0
51 -344 24 0
51 -190 192 0
51 -190 -191 0
51 -344 192 0
51 -344 191 0
51 -157 159 0
51 -157 -160 0
51 -344 159 0
51 -344 160 0
51 145 38 125 345 0
51 -145 147 0
51 -145 -148 0
51 -345 147 0
51 -345 148 0
51 -38 40 0
51 -38 -39 0
51 -345 40 0
51 -345 39 0
51 -125 127 0
51 -125 -128 0
51 -345 127 0
51 -345 128 0
51 10 189 170 346 0
51 -10 12 0
51 -10 -11 0
51 -346 12 0
51 -346 11 0
51 -189 191 0
51 -189 -192 0
51 -346 191 0
51 -346 192 0
51 -170 172 0
51 -170 -171 0
51 -346 172 0
51 -346 171 0
51 157 46 186 347 0
51 -157 159 0
51 -157 -160 0
51 -347 159 0
51 -347 160 0
51 -46 48 0
51 -46 -47 0
51 -347 48 0
51 -347 47 0
51 -186 188 0
51 -186 -187 0
51 -347 188 0
51 -347 187 0
51 121 189 93 348 0
51 -121 123 0
51 -121 -124 0
51 -348 123 0
51 -348 124 0
51 -189 191 0
51 -189 -192 0
51 -348 191 0
51 -348 192 0
51 -93 95 0
51 -93 -96 0
51 -348 95 0
51 -348 96 0
51 42 117 57 349 0
51 -42 44 0
51 -42 -43 0
51 -349 44 0
51 -349 43 0
51 -117 119 0
51 -117 -120 0
51 -349 119 0
51 -349 120 0
51 -57 59 0
51 -57 -60 0
51 -349 59 0
51 -349 60 0
51 10 165 81 350 0
51 -10 12 0
51 -10 -11 0
51 -350 12 0
51 -350 11 0
51 -165 167 0
51 -165 -168 0
51 -350 167 0
51 -350 168 0
51 -81 83 0
51 -81 -84 0
51 -350 83 0
51 -350 84 0
51 190 61 14 351 0
51 -190 192 0
51 -190 -191 0
51 -351 192 0
51 -351 191 0
51 -61 63 0
51 -61 -64 0
51 -351 63 0
51 -351 64 0
51 -14 16 0
51 -14 -15 0
51 -351 16 0
51 -351 15 0
51 118 185 153 352 0
51 -118 120 0
51 -118 -119 0
51 -352 120 0
51 -352 119 0
51 -185 187 0
51 -185 -188 0
51 -352 187 0
51 -352 188 0
51 -153 155 0
51 -153 -156 0
51 -352 155 0
51 -352 156 0
51 18 185 90 353 0
51 -18 20 0
51 -18 -19 0
51 -353 20 0
51 -353 19 0
51 -185 187 0
51 -185 -188 0
51 -353 187 0
51 -353 188 0
51 -90 92 0
51 -90 -91 0
51 -353 92 0
51 -353 91 0
51 185 61 106 354 0
51 -185 187 0
51 -185 -188 0
51 -354 187 0
51 -354 188 0
51 -61 63 0
51 -61 -64 0
51 -354 63 0
51 -354 64 0
51 -106 108 0
51 -106 -107 0
51 -354 108 0
51 -354 107 0
51 85 70 166 355 0
51 -85 87 0
51 -85 -88 0
51 -355 87 0
51 -355 88 0
51 -70 72 0
51 -70 -71 0
51 -355 72 0
51 -355 71 0
51 -166 168 0
51 -166 -167 0
51 -355 168 0
51 -355 167 0
51 194 1 6 356 0
51 -194 196 0
51 -194 -195 0
51 -356 196 0
51 -356 195 0
51 -1 3 0
51 -1 -4 0
51 -356 3 0
51 -356 4 0
51 -6 8 0
51 -6 -7 0
51 -356 8 0
51 -356 7 0
51 74 13 66 357 0
51 -74 76 0
51 -74 -75 0
51 -357 76 0
51 -357 75 0
51 -13 15 0
51 -13 -16 0
51 -357 15 0
51 -357 16 0
51 -66 68 0
51 -66 -67 0
51 -357 68 0
51 -357 67 0
51 198 65 57 358 0
51 -198 200 0
51 -198 -199 0
51 -358 200 0
51 -358 199 0
51 -65 67 0
51 -65 -68 0
51 -358 67 0
51 -358 68 0
51 -57 59 0
51 -57 -60 0
51 -358 59 0
51 -358 60 0
51 98 149 145 359 0
51 -98 100 0
51 -98 -99 0
51 -359 100 0
51 -359 99 0
51 -149 151 0
51 -149 -152 0
51 -359 151 0
51 -359 152 0
51 -145 147 0
51 -145 -148 0
51 -359 147 0
51 -359 148 0
51 26 77 153 360 0
51 -26 28 0
51 -26 -27 0
51 -360 28 0
51 -360 27 0
51 -77 79 0
51 -77 -80 0
51 -360 79 0
51 -360 80 0
51 -153 155 0
51 -153 -156 0
51 -360 155 0
51 -360 156 0
51 182 77 94 361 0
51 -182 184 0
51 -182 -183 0
51 -361 184 0
51 -361 183 0
51 -77 79 0
51 -77 -80 0
51 -361 79 0
51 -361 80 0
51 -94 96 0
51 -94 -95 0
51 -361 96 0
51 -361 95 0
51 98 109 141 362 0
51 -98 100 0
51 -98 -99 0
51 -362 100 0
51 -362 99 0
51 -109 111 0
51 -109 -112 0
51 -362 111 0
51 -362 112 0
51 -141 143 0
51 -141 -144 0
51 -362 143 0
51 -362 144 0
51 130 82 86 363 0
51 -130 132 0
51 -130 -131 0
51 -363 132 0
51 -363 131 0
51 -82 84 0
51 -82 -83 0
51 -363 84 0
51 -363 83 0
51 -86 88 0
51 -86 -87 0
51 -363 88 0
51 -363 87 0
51 30 93 126 364 0
51 -30 32 0
51 -30 -31 0
51 -364 32 0
51 -364 31 0
51 -93 95 0
51 -93 -96 0
51 -364 95 0
51 -364 96 0
51 -126 128 0
51 -126 -127 0
51 -364 128 0
51 -364 127 0
51 45 57 13 365 0
51 -45 47 0
51 -45 -48 0
51 -365 47 0
51 -365 48 0
51 -57 59 0
51 -57 -60 0
51 -365 59 0
51 -365 60 0
51 -13 15 0
51 -13 -16 0
51 -365 15 0
51 -365 16 0
51 94 25 177 366 0
51 -94 96 0
51 -94 -95 0
51 -366 96 0
51 -366 95 0
51 -25 27 0
51 -25 -28 0
51 -366 27 0
51 -366 28 0
51 -177 179 0
51 -177 -180 0
51 -366 179 0
51 -366 180 0
51 113 109 121 367 0
51 -113 115 0
51 -113 -116 0
51 -367 115 0
51 -367 116 0
51 -109 111 0
51 -109 -112 0
51 -367 111 0
51 -367 112 0
51 -121 123 0
51 -121 -124 0
51 -367 123 0
51 -367 124 0
51 78 2 89 368 0
51 -78 80 0
51 -78 -79 0
51 -368 80 0
51 -368 79 0
51 -2 4 0
51 -2 -3 0
51 -368 4 0
51 -368 3 0
51 -89 91 0
51 -89 -92 0
51 -368 91 0
51 -368 92 0
51 137 18 177 369 0
51 -137 139 0
51 -137 -140 0
51 -369 139 0
51 -369 140 0
51 -18 20 0
51 -18 -19 0
51 -369 20 0
51 -369 19 0
51 -177 179 0
51 -177 -180 0
51 -369 179 0
51 -369 180 0
51 197 41 70 370 0
51 -197 199 0
51 -197 -200 0
51 -370 199 0
51 -370 200 0
51 -41 43 0
51 -41 -44 0
51 -370 43 0
51 -370 44 0
51 -70 72 0
51 -70 -71 0
51 -370 72 0
51 -370 71 0
51 109 134 142 371 0
51 -109 111 0
51 -109 -112 0
51 -371 111 0
51 -371 112 0
51 -134 136 0
51 -134 -135 0
51 -371 136 0
51 -371 135 0
51 -142 144 0
51 -142 -143 0
51 -371 144 0
51 -371 143 0
51 97 37 66 372 0
51 -97 99 0
51 -97 -100 0
51 -372 99 0
51 -372 100 0
51 -37 39 0
51 -37 -40 0
51 -372 39 0
51 -372 40 0
51 -66 68 0
51 -66 -67 0
51 -372 68 0
51 -372 67 0
51 30 170 142 373 0
51 -30 32 0
51 -30 -31 0
51 -373 32 0
51 -373 31 0
51 -170 172 0
51 -170 -171 0
51 -373 172 0
51 -373 171 0
51 -142 144 0
51 -142 -143 0
51 -373 144 0
51 -373 143 0
51 6 74 146 374 0
51 -6 8 0
51 -6 -7 0
51 -374 8 0
51 -374 7 0
51 -74 76 0
51 -74 -75 0
51 -374 76 0
51 -374 75 0
51 -146 148 0
51 -146 -147 0
51 -374 148 0
51 -374 147 0
51 193 138 181 375 0
51 -193 195 0
51 -193 -196 0
51 -375 195 0
51 -375 196 0
51 -138 140 0
51 -138 -139 0
51 -375 140 0
51 -375 139 0
51 -181 183 0
51 -181 -184 0
51 -375 183 0
51 -375 184 0
51 178 62 157 376 0
51 -178 180 0
51 -178 -179 0
51 -376 180 0
51 -376 179 0
51 -62 64 0
51 -62 -63 0
51 -376 64 0
51 -376 63 0
51 -157 159 0
51 -157 -160 0
51 -376 159 0
51 -376 160 0
51 78 49 121 377 0
51 -78 80 0
51 -78 -79 0
51 -377 80 0
51 -377 79 0
51 -49 51 0
51 -49 -52 0
51 -377 51 0
51 -377 52 0
51 -121 123 0
51 -121 -124 0
51 -377 123 0
51 -377 124 0
51 81 97 186 378 0
51 -81 83 0
51 -81 -84 0
51 -378 83 0
51 -378 84 0
51 -97 99 0
51 -97 -100 0
51 -378 99 0
51 -378 100 0
51 -186 188 0
51 -186 -187 0
51 -378 188 0
51 -378 187 0
51 149 25 194 379 0
51 -149 151 0
51 -149 -152 0
51 -379 151 0
51 -379 152 0
51 -25 27 0
51 -25 -28 0
51 -379 27 0
51 -379 28 0
51 -194 196 0
51 -194 -195 0
51 -379 196 0
51 -379 195 0
51 37 1 69 380 0
51 -37 39 0
51 -37 -40 0
51 -380 39 0
51 -380 40 0
51 -1 3 0
51 -1 -4 0
51 -380 3 0
51 -380 4 0
51 -69 71 0
51 -69 -72 0
51 -380 71 0
51 -380 72 0
51 41 46 85 381 0
51 -41 43 0
51 -41 -44 0
51 -381 43 0
51 -381 44 0
51 -46 48 0
51 -46 -47 0
51 -381 48 0
51 -381 47 0
51 -85 87 0
51 -85 -88 0
51 -381 87 0
51 -381 88 0
51 82 46 5 382 0
51 -82 84 0
51 -82 -83 0
51 -382 84 0
51 -382 83 0
51 -46 48 0
51 -46 -47 0
51 -382 48 0
51 -382 47 0
51 -5 7 0
51 -5 -8 0
51 -382 7 0
51 -382 8 0
51 65 53 6 383 0
51 -65 67 0
51 -65 -68 0
51 -383 67 0
51 -383 68 0
51 -53 55 0
51 -53 -56 0
51 -383 55 0
51 -383 56 0
51 -6 8 0
51 -6 -7 0
51 -383 8 0
51 -383 7 0
51 38 98 117 384 0
51 -38 40 0
51 -38 -39 0
51 -384 40 0
51 -384 39 0
51 -98 100 0
51 -98 -99 0
51 -384 100 0
51 -384 99 0
51 -117 119 0
51 -117 -120 0
51 -384 119 0
51 -384 120 0
51 174 110 122 385 0
51 -174 176 0
51 -174 -175 0
51 -385 176 0
51 -385 175 0
51 -110 112 0
51 -110 -111 0
51 -385 112 0
51 -385 111 0
51 -122 124 0
51 -122 -123 0
51 -385 124 0
51 -385 123 0
51 37 22 29 386 0
51 -37 39 0
51 -37 -40 0
51 -386 39 0
51 -386 40 0
51 -22 24 0
51 -22 -23 0
51 -386 24 0
51 -386 23 0
51 -29 31 0
51 -29 -32 0
51 -386 31 0
51 -386 32 0
51 122 33 146 387 0
51 -122 124 0
51 -122 -123 0
51 -387 124 0
51 -387 123 0
51 -33 35 0
51 -33 -36 0
51 -387 35 0
51 -387 36 0
51 -146 148 0
51 -146 -147 0
51 -387 148 0
51 -387 147 0
51 146 90 153 388 0
51 -146 148 0
51 -146 -147 0
51 -388 148 0
51 -388 147 0
51 -90 92 0
51 -90 -91 0
51 -388 92 0
51 -388 91 0
51 -153 155 0
51 -153 -156 0
51 -388 155 0
51 -388 156 0
51 78 14 125 389 0
51 -78 80 0
51 -78 -79 0
51 -389 80 0
51 -389 79 0
51 -14 16 0
51 -14 -15 0
51 -389 16 0
51 -389 15 0
51 -125 127 0
51 -125 -128 0
51 -389 127 0
51 -389 128 0
51 46 122 142 390 0
51 -46 48 0
51 -46 -47 0
51 -390 48 0
51 -390 47 0
51 -122 124 0
51 -122 -123 0
51 -390 124 0
51 -390 123 0
51 -142 144 0
51 -142 -143 0
51 -390 144 0
51 -390 143 0
51 110 150 138 391 0
51 -110 112 0
51 -110 -111 0
51 -391 112 0
51 -391 111 0
51 -150 152 0
51 -150 -151 0
51 -391 152 0
51 -391 151 0
51 -138 140 0
51 -138 -139 0
51 -391 140 0
51 -391 139 0
51 2 109 162 392 0
51 -2 4 0
51 -2 -3 0
51 -392 4 0
51 -392 3 0
51 -109 111 0
51 -109 -112 0
51 -392 111 0
51 -392 112 0
51 -162 164 0
51 -162 -163 0
51 -392 164 0
51 -392 163 0
51 49 182 69 393 0
51 -49 51 0
51 -49 -52 0
51 -393 51 0
51 -393 52 0
51 -182 184 0
51 -182 -183 0
51 -393 184 0
51 -393 183 0
51 -69 71 0
51 -69 -72 0
51 -393 71 0
51 -393 72 0
51 34 13 61 394 0
51 -34 36 0
51 -34 -35 0
51 -394 36 0
51 -394 35 0
51 -13 15 0
51 -13 -16 0
51 -394 15 0
51 -394 16 0
51 -61 63 0
51 -61 -64 0
51 -394 63 0
51 -394 64 0
51 190 53 133 395 0
51 -190 192 0
51 -190 -191 0
51 -395 192 0
51 -395 191 0
51 -53 55 0
51 -53 -56 0
51 -395 55 0
51 -395 56 0
51 -133 135 0
51 -133 -136 0
51 -395 135 0
51 -395 136 0
51 46 129 2 396 0
51 -46 48 0
51 -46 -47 0
51 -396 48 0
51 -396 47 0
51 -129 131 0
51 -129 -132 0
51 -396 131 0
51 -396 132 0
51 -2 4 0
51 -2 -3 0
51 -396 4 0
51 -396 3 0
51 113 73 102 397 0
51 -113 115 0
51 -113 -116 0
51 -397 115 0
51 -397 116 0
51 -73 75 0
51 -73 -76 0
51 -397 75 0
51 -397 76 0
51 -102 104 0
51 -102 -103 0
51 -397 104 0
51 -397 103 0
51 58 73 121 398 0
51 -58 60 0
51 -58 -59 0
51 -398 60 0
51 -398 59 0
51 -73 75 0
51 -73 -76 0
51 -398 75 0
51 -398 76 0
51 -121 123 0
51 -121 -124 0
51 -398 123 0
51 -398 124 0
51 177 109 69 399 0
51 -177 179 0
51 -177 -180 0
51 -399 179 0
51 -399 180 0
51 -109 111 0
51 -109 -112 0
51 -399 111 0
51 -399 112 0
51 -69 71 0
51 -69 -72 0
51 -399 71 0
51 -399 72 0
51 54 130 185 400 0
51 -54 56 0
51 -54 -55 0
51 -400 56 0
51 -400 55 0
51 -130 132 0
51 -130 -131 0
51 -400 132 0
51 -400 131 0
51 -185 187 0
51 -185 -188 0
51 -400 187 0
51 -400 188 0
51 29 86 37 401 0
51 -29 31 0
51 -29 -32 0
51 -401 31 0
51 -401 32 0
51 -86 88 0
51 -86 -87 0
51 -401 88 0
51 -401 87 0
51 -37 39 0
51 -37 -40 0
51 -401 39 0
51 -401 40 0
51 129 29 5 402 0
51 -129 131 0
51 -129 -132 0
51 -402 131 0
51 -402 132 0
51 -29 31 0
51 -29 -32 0
51 -402 31 0
51 -402 32 0
51 -5 7 0
51 -5 -8 0
51 -402 7 0
51 -402 8 0
51 121 189 194 403 0
51 -121 123 0
51 -121 -124 0
51 -403 123 0
51 -403 124 0
51 -189 191 0
51 -189 -192 0
51 -403 191 0
51 -403 192 0
51 -194 196 0
51 -194 -195 0
51 -403 196 0
51 -403 195 0
51 110 114 13 404 0
51 -110 112 0
51 -110 -111 0
51 -404 112 0
51 -404 111 0
51 -114 116 0
51 -114 -115 0
51 -404 116 0
51 -404 115 0
51 -13 15 0
51 -13 -16 0
51 -404 15 0
51 -404 16 0
51 29 125 53 405 0
51 -29 31 0
51 -29 -32 0
51 -405 31 0
51 -405 32 0
51 -125 127 0
51 -125 -128 0
51 -405 127 0
51 -405 128 0
51 -53 55 0
51 -53 -56 0
51 -405 55 0
51 -405 56 0
51 45 162 126 406 0
51 -45 47 0
51 -45 -48 0
51 -406 47 0
51 -406 48 0
51 -162 164 0
51 -162 -163 0
51 -406 164 0
51 -406 163 0
51 -126 128 0
51 -126 -127 0
51 -406 128 0
51 -406 127 0
51 190 146 82 407 0
51 -190 192 0
51 -190 -191 0
51 -407 192 0
51 -407 191 0
51 -146 148 0
51 -146 -147 0
51 -407 148 0
51 -407 147 0
51 -82 84 0
51 -82 -83 0
51 -407 84 0
51 -407 83 0
51 61 122 138 408 0
51 -61 63 0
51 -61 -64 0
51 -408 63 0
51 -408 64 0
51 -122 124 0
51 -122 -123 0
51 -408 124 0
51 -408 123 0
51 -138 140 0
51 -138 -139 0
51 -408 140 0
51 -408 139 0
51 29 33 101 409 0
51 -29 31 0
51 -29 -32 0
51 -409 31 0
51 -409 32 0
51 -33 35 0
51 -33 -36 0
51 -409 35 0
51 -409 36 0
51 -101 103 0
51 -101 -104 0
51 -409 103 0
51 -409 104 0
51 114 41 17 410 0
51 -114 116 0
51 -114 -115 0
51 -410 116 0
51 -410 115 0
51 -41 43 0
51 -41 -44 0
51 -410 43 0
51 -410 44 0
51 -17 19 0
51 -17 -20 0
51 -410 19 0
51 -410 20 0
51 58 102 62 411 0
51 -58 60 0
51 -58 -59 0
51 -411 60 0
51 -411 59 0
51 -102 104 0
51 -102 -103 0
51 -411 104 0
51 -411 103 0
51 -62 64 0
51 -62 -63 0
51 -411 64 0
51 -411 63 0
51 137 154 126 412 0
51 -137 139 0
51 -137 -140 0
51 -412 139 0
51 -412 140 0
51 -154 156 0
51 -154 -155 0
51 -412 156 0
51 -412 155 0
51 -126 128 0
51 -126 -127 0
51 -412 128 0
51 -412 127 0
51 170 13 50 413 0
51 -170 172 0
51 -170 -171 0
51 -413 172 0
51 -413 171 0
51 -13 15 0
51 -13 -16 0
51 -413 15 0
51 -413 16 0
51 -50 52 0
51 -50 -51 0
51 -413 52 0
51 -413 51 0
51 94 106 5 414 0
51 -94 96 0
51 -94 -95 0
51 -414 96 0
51 -414 95 0
51 -106 108 0
51 -106 -107 0
51 -414 108 0
51 -414 107 0
51 -5 7 0
51 -5 -8 0
51 -414 7 0
51 -414 8 0
51 90 65 58 415 0
51 -90 92 0
51 -90 -91 0
51 -415 92 0
51 -415 91 0
51 -65 67 0
51 -65 -68 0
51 -415 67 0
51 -415 68 0
51 -58 60 0
51 -58 -59 0
51 -415 60 0
51 -415 59 0
51 5 89 22 416 0
51 -5 7 0
51 -5 -8 0
51 -416 7 0
51 -416 8 0
51 -89 91 0
51 -89 -92 0
51 -416 91 0
51 -416 92 0
51 -22 24 0
51 -22 -23 0
51 -416 24 0
51 -416 23 0
51 46 13 141 417 0
51 -46 48 0
51 -46 -47 0
51 -417 48 0
51 -417 47 0
51 -13 15 0
51 -13 -16 0
51 -417 15 0
51 -417 16 0
51 -141 143 0
51 -141 -144 0
51 -417 143 0
51 -417 144 0
51 98 6 110 418 0
51 -98 100 0
51 -98 -99 0
51 -418 100 0
51 -418 99 0
51 -6 8 0
51 -6 -7 0
51 -418 8 0
51 -418 7 0
51 -110 112 0
51 -110 -111 0
51 -418 112 0
51 -418 111 0
1 -3 -4 0
1 -7 -8 0
1 -11 -12 0
1 -15 -16 0
1 -19 -20 0
1 -23 -24 0
1 -27 -28 0
1 -31 -32 0
1 -35 -36 0
1 -39 -40 0
1 -43 -44 0
1 -47 -48 0
1 -51 -52 0
1 -55 -56 0
1 -59 -60 0
1 -63 -64 0
1 -67 -68 0
1 -71 -72 0
1 -75 -76 0
1 -79 -80 0
1 -83 -84 0
1 -87 -88 0
1 -91 -92 0
1 -95 -96 0
1 -99 -100 0
1 -103 -104 0
1 -107 -108 0
1 -111 -112 0
1 -115 -116 0
1 -119 -120 0
1 -123 -124 0
1 -127 -128 0
1 -131 -132 0
1 -135 -136 0
1 -139 -140 0
1 -143 -144 0
1 -147 -148 0
1 -151 -152 0
1 -155 -156 0
1 -159 -160 0
1 -163 -164 0
1 -167 -168 0
1 -171 -172 0
1 -175 -176 0
1 -179 -180 0
1 -183 -184 0
1 -187 -188 0
1 -191 -192 0
1 -195 -196 0
1 -199 -200 0
